50
12.3 30.2
9.8 30.6
22.9 28.2
16.7 31.6
13.5 32.5
11.5 32.8
9.1 32.2
16.9 33.1
18.7 32.6
13.5 34.4
11.7 35.3
9.8 34.6
7.9 34.8
15.3 35.2
17.6 35.0
19.9 34.8
20.1 36.8
18.9 37.2
16.1 37.3
13.7 37.4
10.8 36.9
8.7 37.0
7.1 38.3
9.6 39.4
12.0 39.3
14.8 39.6
17.2 39.4
20.1 39.6
14.2 40.9
16.0 41.8
18.7 41.8
13.2 41.8
10.6 41.6
7.5 41.8
17.3 43.8
25.8 44.0
14.5 43.8
12.4 43.9
9.2 44.3
6.9 44.1
10.8 45.9
16.4 46.2
13.2 46.8
8.2 46.7
3.6 48.7
12.2 50.5
11.3 53.5
19.4 54.2
10.5 56.1
9.2 60.5